100 5
25 200
20
30
10
40
20
20
20
10
20
30
40
20
10
10
20
20
20
20
40
10
10
40
30
10
20
30
20
10
10
10
20
10
10
30
20
40
10
30
10
30
20
10
20
10
10
10
10
10
10
30
19
3
5
16
16
19
23
20
19
17
9
3
6
17
16
16
9
21
27
23
14
8
5
8
16
31
7
27
30
13
10
9
14
18
2
28
13
19
25
6
13
14
3
23
6
26
35
9
15
3
40 50 0 240 0 0
25 85 49 191 10 2
22 75 30 168 10 1
22 85 95 152 10 2
20 80 69 193 10 2
20 85 40 189 10 3
18 75 60 159 10 3
15 75 54 133 10 1
15 80 67 144 10 1
10 35 57 154 10 2
10 40 106 161 10 2
8 40 33 152 10 3
8 45 32 148 10 1
5 35 53 191 10 1
5 45 35 194 10 3
2 40 39 163 10 2
0 40 41 141 10 3
0 45 51 189 10 1
44 5 73 130 10 2
42 10 40 148 10 3
42 15 94 179 10 2
40 5 45 161 10 3
40 15 64 149 10 1
38 5 45 164 10 3
38 15 51 194 10 1
35 5 45 183 10 1
95 30 90 169 10 1
95 35 57 172 10 3
92 30 55 174 10 2
90 35 52 174 10 1
88 30 52 147 10 3
88 35 50 172 10 3
87 30 61 178 10 3
85 25 51 178 10 1
85 35 83 168 10 1
67 85 57 185 10 3
65 85 43 186 10 3
65 82 95 182 10 3
62 80 38 141 10 2
60 80 36 193 10 3
60 85 61 138 10 3
58 75 49 164 10 3
55 80 33 180 10 2
55 85 100 185 10 2
55 82 35 142 10 1
20 82 37 192 10 3
18 80 71 184 10 2
2 45 38 191 10 3
42 5 50 184 10 3
42 12 99 138 10 2
72 35 83 178 10 3
55 20 45 150 10 2
25 30 25 150 10 1
20 50 68 143 10 1
55 60 107 200 10 1
30 60 95 214 10 1
50 35 91 198 10 1
30 25 56 165 10 1
15 10 51 182 10 2
10 20 42 187 10 1
15 60 62 203 10 1
45 65 37 124 10 3
65 35 29 168 10 1
65 20 39 190 10 2
45 30 20 139 10 1
35 40 11 150 10 3
41 37 97 198 10 1
64 42 31 138 10 3
40 60 101 216 10 1
31 52 9 139 10 2
35 69 30 210 10 3
65 55 30 129 10 3
63 65 27 202 10 2
2 60 46 137 10 3
20 20 71 193 10 1
5 5 57 165 10 1
60 12 48 131 10 1
23 3 49 180 10 2
8 56 47 162 10 1
6 68 65 142 10 1
47 47 93 222 10 3
49 58 78 123 10 2
27 43 14 140 10 1
37 31 19 172 10 2
57 29 73 148 10 1
63 23 59 144 10 1
21 24 63 140 10 2
12 24 91 118 10 3
24 58 27 136 10 2
67 5 52 177 10 2
37 47 53 148 10 1
49 42 89 217 10 2
53 43 14 177 10 1
61 52 50 208 10 3
57 48 76 143 10 2
56 37 20 159 10 1
55 54 105 188 10 3
4 18 104 165 10 2
26 52 14 136 10 1
26 35 42 141 10 1
31 67 43 210 10 1
77 41 0 240 5 4
14 18 0 240 5 4
15 54 0 240 5 4
28 45 0 240 5 4
86 78 0 240 5 4
0 0 1 0 0
0 0 0 0 0
0 0 1 0 0
0 0 1 0 0
0 0 1 0 0
0 0 1 0 0
0 0 0 0 0
0 0 0 0 0
0 1 0 0 0
0 0 1 0 0
0 0 1 0 0
0 0 0 0 0
0 0 0 0 0
0 0 1 0 0
0 0 1 0 0
0 0 1 0 0
0 0 0 0 0
0 1 0 0 0
0 1 0 0 0
0 1 0 0 0
0 1 0 0 0
0 0 0 0 0
0 1 0 0 0
0 0 0 0 0
0 0 0 0 0
0 0 0 0 0
1 0 0 0 0
1 0 0 0 0
0 0 0 0 0
1 0 0 0 0
1 0 0 0 0
1 0 0 0 0
0 0 0 0 0
0 0 0 0 0
0 0 0 0 1
0 0 0 0 1
0 0 0 0 1
0 0 0 0 1
0 0 0 0 1
0 0 0 0 1
0 0 0 0 1
0 0 0 0 1
0 0 0 0 1
0 0 0 0 0
0 0 1 0 0
0 0 1 0 0
0 0 1 0 0
0 1 0 0 0
0 1 0 0 0
1 0 0 0 0
1 0 0 0 0
0 0 0 0 0
0 0 0 0 0
0 0 0 0 0
0 0 0 0 0
0 0 0 0 0
0 0 0 0 0
0 1 0 0 0
0 0 0 0 0
0 0 0 0 0
0 0 0 1 0
0 0 0 0 0
1 0 0 0 0
0 0 0 0 0
0 0 0 1 0
0 0 0 0 0
1 0 0 0 0
0 0 0 0 0
0 0 0 1 0
0 0 1 0 0
1 0 0 0 0
0 0 0 0 1
0 0 1 0 0
0 0 0 0 0
0 0 0 0 0
0 0 0 0 0
0 1 0 0 0
0 0 0 0 0
0 0 0 0 0
0 0 0 1 0
0 0 0 1 0
0 0 0 0 0
0 0 0 1 0
0 0 0 0 0
0 0 0 0 0
0 1 0 0 0
0 1 0 0 0
0 0 1 0 0
1 0 0 0 0
0 0 0 0 0
0 0 0 1 0
0 0 0 0 0
1 0 0 0 0
1 0 0 0 0
0 0 0 0 0
1 0 0 0 0
0 1 0 0 0
0 0 0 0 0
0 0 0 0 0
0 0 0 0 0
